100
200
160
155
153
153
152
152
147
145
141
141
139
139
138
135
134
133
132
130
129
129
127
127
127
126
124
123
123
123
122
118
117
117
111
108
108
107
105
104
104
103
102
102
99
99
97
96
96
95
95
92
92
91
88
84
82
81
77
76
74
73
72
71
70
68
67
66
66
63
63
62
62
61
58
58
56
56
53
52
52
50
50
48
44
41
40
40
36
35
35
31
31
28
26
25
25
23
23
22
22
21
